NAME : route.1506779.tour
COMMENT : Length = 1506779
COMMENT : Found by LKH-3 [Keld Helsgaun] Sat Jul 13 16:34:45 2024
TYPE : TOUR
DIMENSION : 140
TOUR_SECTION
1
77
78
79
80
81
82
83
84
71
72
73
74
75
76
35
36
37
38
39
40
41
42
29
30
31
32
33
34
131
132
133
134
135
136
137
138
139
140
127
128
129
130
47
48
49
50
51
52
53
54
55
56
43
44
45
46
62
63
64
65
66
67
68
69
70
57
58
59
60
61
122
123
124
125
126
113
114
115
116
117
118
119
120
121
25
26
27
28
15
16
17
18
19
20
21
22
23
24
85
86
87
88
89
90
91
92
93
94
95
96
97
98
101
102
103
104
105
106
107
108
109
110
111
112
99
100
2
3
4
5
6
7
8
9
10
11
12
13
14
-1
EOF
